1633083820
1633098600
1633343400
1633358880
1633429800
1633444140
1633516200
1633530419
1633530420
1633530480
1633530600
1633602600
1633617060
1633689000
1633703880
1634553000
1634567520
1634639400
1634654580
1634725800
1634740260
1634812200
1634826540
1634898600
1634913600
1635157800
1635172386
1635172392
1635244200
1635258780
1635330600
1635345120
1635417000
1635431340
1635503400
1635518820
